(set-logic QF_SLIA)
(declare-const result String)
(declare-const attack String)
(declare-const prefix RegLan)
(declare-const infix RegLan)
(declare-const postfix RegLan)
(declare-const postfixs String)

(assert (str.in_re attack (re.++ prefix ((_ re.loop 5000 5000) infix) postfix)))
(assert (= prefix 
     (re.++  (str.to_re "\u{69}") (re.++  (str.to_re "\u{43}") (re.++  (str.to_re "\u{61}") (re.++  (str.to_re "\u{62}") (re.++  (str.to_re "\u{20}") (re.++  (str.to_re "\u{31}") re.allchar))))))
))
(assert (= infix 
        (re.inter  (re.++ (re.+ (re.range "0" "9") ) (re.+ (re.range "0" "9") ))  (re.++ (re.+ (re.range "0" "9") ) (re.++ (re.opt  (str.to_re "\u{5c}\u{2e}") ) (re.+ (re.range "0" "9") ))) )
))
(assert (= postfix 
         (re.++  (str.to_re "\u{21}") (re.++  (str.to_re "\u{31}")  (str.to_re "\u{21}")))
))
(assert (str.in_re postfixs postfix))
(assert (>= (str.len postfixs) 1))
(assert (= result (str.++ attack postfixs)))
(check-sat)
(get-model)